(set-info :smt-lib-version 2.6)
(set-logic QF_LRA)
(set-info :source |
Fully parameterized specification and verification of a synchronizer   
circuit modeling metastability at various levels of refinement.     
A paper describing this specification, to be published in Designing     
Correct Circuits (DCC), 2006, is available from the authors.            

Geoffrey Brown, Indiana University <geobrown@cs.indiana.edu>
Lee Pike, Galois Connections, Inc. <leepike@galois.com>

Translated into CVC format by Leonardo de Moura.

This benchmark was automatically translated into SMT-LIB format from
CVC format using CVC Lite

|)
(set-info :category "industrial")
(set-info :status sat)
(declare-fun x_0 () Bool)
(declare-fun x_1 () Bool)
(declare-fun x_2 () Real)
(declare-fun x_3 () Real)
(declare-fun x_4 () Bool)
(declare-fun x_5 () Bool)
(declare-fun x_6 () Real)
(declare-fun x_7 () Real)
(declare-fun x_8 () Bool)
(declare-fun x_9 () Bool)
(declare-fun x_10 () Real)
(declare-fun x_11 () Real)
(declare-fun x_12 () Bool)
(declare-fun x_13 () Bool)
(declare-fun x_14 () Real)
(declare-fun x_15 () Real)
(declare-fun x_16 () Bool)
(declare-fun x_17 () Bool)
(declare-fun x_18 () Real)
(declare-fun x_19 () Real)
(declare-fun x_20 () Bool)
(declare-fun x_21 () Bool)
(declare-fun x_22 () Real)
(declare-fun x_23 () Real)
(declare-fun x_24 () Bool)
(declare-fun x_25 () Bool)
(declare-fun x_26 () Real)
(declare-fun x_27 () Real)
(declare-fun x_28 () Bool)
(declare-fun x_29 () Bool)
(declare-fun x_30 () Real)
(declare-fun x_31 () Real)
(declare-fun x_32 () Bool)
(declare-fun x_33 () Bool)
(declare-fun x_34 () Real)
(declare-fun x_35 () Real)
(declare-fun x_36 () Bool)
(declare-fun x_37 () Bool)
(declare-fun x_38 () Real)
(declare-fun x_39 () Real)
(declare-fun x_40 () Bool)
(declare-fun x_41 () Bool)
(declare-fun x_42 () Real)
(declare-fun x_43 () Real)
(declare-fun x_44 () Bool)
(declare-fun x_45 () Bool)
(declare-fun x_46 () Real)
(declare-fun x_47 () Real)
(declare-fun x_48 () Bool)
(declare-fun x_49 () Bool)
(declare-fun x_50 () Real)
(declare-fun x_51 () Real)
(declare-fun x_52 () Real)
(declare-fun x_53 () Real)
(declare-fun x_54 () Real)
(declare-fun x_55 () Real)
(declare-fun x_56 () Real)
(declare-fun x_57 () Real)
(declare-fun x_58 () Real)
(declare-fun x_59 () Real)
(declare-fun x_60 () Real)
(declare-fun x_61 () Real)
(declare-fun x_62 () Real)
(declare-fun x_63 () Real)
(declare-fun x_64 () Real)
(declare-fun x_65 () Real)
(declare-fun x_66 () Real)
(declare-fun x_67 () Real)
(declare-fun x_68 () Real)
(declare-fun x_69 () Real)
(declare-fun x_70 () Real)
(declare-fun x_71 () Real)
(declare-fun x_72 () Real)
(declare-fun x_73 () Real)
(declare-fun x_74 () Real)
(declare-fun x_75 () Real)
(declare-fun x_76 () Real)
(declare-fun x_77 () Real)
(declare-fun x_78 () Real)
(declare-fun x_79 () Real)
(declare-fun x_80 () Real)
(declare-fun x_81 () Real)
(declare-fun x_82 () Real)
(declare-fun x_83 () Real)
(declare-fun x_84 () Real)
(declare-fun x_85 () Real)
(declare-fun x_86 () Real)
(declare-fun x_87 () Real)
(declare-fun x_88 () Real)
(declare-fun x_89 () Real)
(declare-fun x_90 () Real)
(declare-fun x_91 () Real)
(declare-fun x_92 () Real)
(declare-fun x_93 () Real)
(declare-fun x_94 () Real)
(declare-fun x_95 () Real)
(declare-fun x_96 () Real)
(declare-fun x_97 () Real)
(declare-fun x_98 () Real)
(declare-fun x_99 () Real)
(declare-fun x_100 () Real)
(declare-fun x_101 () Real)
(declare-fun x_102 () Real)
(declare-fun x_103 () Real)
(declare-fun x_104 () Real)
(declare-fun x_105 () Real)
(declare-fun x_106 () Real)
(declare-fun x_107 () Real)
(declare-fun x_108 () Real)
(declare-fun x_109 () Real)
(declare-fun x_110 () Real)
(declare-fun x_111 () Real)
(declare-fun x_112 () Real)
(declare-fun x_113 () Real)
(declare-fun x_114 () Real)
(declare-fun x_115 () Real)
(declare-fun x_116 () Real)
(declare-fun x_117 () Real)
(declare-fun x_118 () Real)
(declare-fun x_119 () Real)
(declare-fun x_120 () Real)
(declare-fun x_121 () Real)
(declare-fun x_122 () Real)
(declare-fun x_123 () Real)
(declare-fun x_124 () Real)
(declare-fun x_125 () Real)
(declare-fun x_126 () Bool)
(declare-fun x_127 () Bool)
(declare-fun x_128 () Real)
(declare-fun x_129 () Bool)
(declare-fun x_130 () Bool)
(declare-fun x_131 () Bool)
(declare-fun x_132 () Bool)
(declare-fun x_133 () Bool)
(declare-fun x_134 () Real)
(declare-fun x_135 () Bool)
(declare-fun x_136 () Real)
(declare-fun x_137 () Real)
(declare-fun x_138 () Real)
(declare-fun x_139 () Bool)
(declare-fun x_140 () Real)
(declare-fun x_141 () Bool)
(declare-fun x_142 () Bool)
(declare-fun x_143 () Real)
(declare-fun x_144 () Bool)
(declare-fun x_145 () Real)
(declare-fun x_146 () Real)
(declare-fun x_147 () Real)
(declare-fun x_148 () Bool)
(declare-fun x_149 () Real)
(declare-fun x_150 () Bool)
(declare-fun x_151 () Bool)
(declare-fun x_152 () Real)
(declare-fun x_153 () Bool)
(declare-fun x_154 () Real)
(declare-fun x_155 () Real)
(declare-fun x_156 () Real)
(declare-fun x_157 () Bool)
(declare-fun x_158 () Real)
(declare-fun x_159 () Bool)
(declare-fun x_160 () Bool)
(declare-fun x_161 () Real)
(declare-fun x_162 () Bool)
(declare-fun x_163 () Real)
(declare-fun x_164 () Real)
(declare-fun x_165 () Real)
(declare-fun x_166 () Bool)
(declare-fun x_167 () Real)
(declare-fun x_168 () Bool)
(declare-fun x_169 () Bool)
(declare-fun x_170 () Real)
(declare-fun x_171 () Bool)
(declare-fun x_172 () Real)
(declare-fun x_173 () Real)
(declare-fun x_174 () Real)
(declare-fun x_175 () Bool)
(declare-fun x_176 () Real)
(declare-fun x_177 () Bool)
(declare-fun x_178 () Bool)
(declare-fun x_179 () Real)
(declare-fun x_180 () Bool)
(declare-fun x_181 () Real)
(declare-fun x_182 () Real)
(declare-fun x_183 () Real)
(declare-fun x_184 () Bool)
(declare-fun x_185 () Real)
(declare-fun x_186 () Bool)
(declare-fun x_187 () Bool)
(declare-fun x_188 () Real)
(declare-fun x_189 () Bool)
(declare-fun x_190 () Real)
(declare-fun x_191 () Real)
(declare-fun x_192 () Real)
(declare-fun x_193 () Bool)
(declare-fun x_194 () Real)
(declare-fun x_195 () Bool)
(declare-fun x_196 () Bool)
(declare-fun x_197 () Real)
(declare-fun x_198 () Bool)
(declare-fun x_199 () Real)
(declare-fun x_200 () Real)
(declare-fun x_201 () Real)
(declare-fun x_202 () Bool)
(declare-fun x_203 () Real)
(declare-fun x_204 () Bool)
(declare-fun x_205 () Bool)
(declare-fun x_206 () Real)
(declare-fun x_207 () Bool)
(declare-fun x_208 () Real)
(declare-fun x_209 () Real)
(declare-fun x_210 () Real)
(declare-fun x_211 () Bool)
(declare-fun x_212 () Real)
(declare-fun x_213 () Bool)
(declare-fun x_214 () Bool)
(declare-fun x_215 () Real)
(declare-fun x_216 () Bool)
(declare-fun x_217 () Real)
(declare-fun x_218 () Real)
(declare-fun x_219 () Real)
(declare-fun x_220 () Bool)
(declare-fun x_221 () Real)
(declare-fun x_222 () Bool)
(declare-fun x_223 () Bool)
(declare-fun x_224 () Real)
(declare-fun x_225 () Bool)
(declare-fun x_226 () Real)
(declare-fun x_227 () Real)
(declare-fun x_228 () Real)
(declare-fun x_229 () Bool)
(declare-fun x_230 () Real)
(declare-fun x_231 () Bool)
(declare-fun x_232 () Bool)
(declare-fun x_233 () Real)
(declare-fun x_234 () Bool)
(declare-fun x_235 () Real)
(declare-fun x_236 () Real)
(declare-fun x_237 () Real)
(declare-fun x_238 () Bool)
(declare-fun x_239 () Real)
(declare-fun x_240 () Real)
(declare-fun x_241 () Bool)
(declare-fun x_242 () Bool)
(declare-fun x_243 () Bool)
(declare-fun x_244 () Bool)
(declare-fun x_245 () Real)
(declare-fun x_246 () Bool)
(declare-fun x_247 () Real)
(declare-fun x_248 () Real)
(declare-fun x_249 () Real)
(declare-fun x_250 () Real)
(assert (let ((?v_26 (ite (<= x_52 x_53) x_52 x_53)) (?v_24 (ite (<= x_61 x_62) x_61 x_62)) (?v_22 (ite (<= x_66 x_67) x_66 x_67)) (?v_20 (ite (<= x_71 x_72) x_71 x_72)) (?v_18 (ite (<= x_76 x_77) x_76 x_77)) (?v_16 (ite (<= x_81 x_82) x_81 x_82)) (?v_14 (ite (<= x_86 x_87) x_86 x_87)) (?v_12 (ite (<= x_91 x_92) x_91 x_92)) (?v_10 (ite (<= x_96 x_97) x_96 x_97)) (?v_8 (ite (<= x_101 x_102) x_101 x_102)) (?v_6 (ite (<= x_106 x_107) x_106 x_107)) (?v_4 (ite (<= x_111 x_112) x_111 x_112)) (?v_2 (ite (<= x_116 x_117) x_116 x_117)) (?v_0 (ite (<= x_121 x_122) x_121 x_122)) (?v_201 (= x_63 x_57)) (?v_203 (= x_53 x_62)) (?v_205 (= x_65 x_59)) (?v_199 (= x_52 x_61))) (let ((?v_206 (not ?v_199)) (?v_209 (= x_64 x_58)) (?v_196 (= x_126 x_127)) (?v_197 (= x_7 x_3)) (?v_200 (ite (<= x_53 x_52) x_53 x_52)) (?v_187 (= x_68 x_63)) (?v_189 (= x_62 x_67)) (?v_191 (= x_70 x_65)) (?v_185 (= x_61 x_66))) (let ((?v_192 (not ?v_185)) (?v_195 (= x_69 x_64)) (?v_182 (= x_139 x_126)) (?v_183 (= x_11 x_7)) (?v_186 (ite (<= x_62 x_61) x_62 x_61)) (?v_173 (= x_73 x_68)) (?v_175 (= x_67 x_72)) (?v_177 (= x_75 x_70)) (?v_171 (= x_66 x_71))) (let ((?v_178 (not ?v_171)) (?v_181 (= x_74 x_69)) (?v_168 (= x_148 x_139)) (?v_169 (= x_15 x_11)) (?v_172 (ite (<= x_67 x_66) x_67 x_66)) (?v_159 (= x_78 x_73)) (?v_161 (= x_72 x_77)) (?v_163 (= x_80 x_75)) (?v_157 (= x_71 x_76))) (let ((?v_164 (not ?v_157)) (?v_167 (= x_79 x_74)) (?v_154 (= x_157 x_148)) (?v_155 (= x_19 x_15)) (?v_158 (ite (<= x_72 x_71) x_72 x_71)) (?v_145 (= x_83 x_78)) (?v_147 (= x_77 x_82)) (?v_149 (= x_85 x_80)) (?v_143 (= x_76 x_81))) (let ((?v_150 (not ?v_143)) (?v_153 (= x_84 x_79)) (?v_140 (= x_166 x_157)) (?v_141 (= x_23 x_19)) (?v_144 (ite (<= x_77 x_76) x_77 x_76)) (?v_131 (= x_88 x_83)) (?v_133 (= x_82 x_87)) (?v_135 (= x_90 x_85)) (?v_129 (= x_81 x_86))) (let ((?v_136 (not ?v_129)) (?v_139 (= x_89 x_84)) (?v_126 (= x_175 x_166)) (?v_127 (= x_27 x_23)) (?v_130 (ite (<= x_82 x_81) x_82 x_81)) (?v_117 (= x_93 x_88)) (?v_119 (= x_87 x_92)) (?v_121 (= x_95 x_90)) (?v_115 (= x_86 x_91))) (let ((?v_122 (not ?v_115)) (?v_125 (= x_94 x_89)) (?v_112 (= x_184 x_175)) (?v_113 (= x_31 x_27)) (?v_116 (ite (<= x_87 x_86) x_87 x_86)) (?v_103 (= x_98 x_93)) (?v_105 (= x_92 x_97)) (?v_107 (= x_100 x_95)) (?v_101 (= x_91 x_96))) (let ((?v_108 (not ?v_101)) (?v_111 (= x_99 x_94)) (?v_98 (= x_193 x_184)) (?v_99 (= x_35 x_31)) (?v_102 (ite (<= x_92 x_91) x_92 x_91)) (?v_89 (= x_103 x_98)) (?v_91 (= x_97 x_102)) (?v_93 (= x_105 x_100)) (?v_87 (= x_96 x_101))) (let ((?v_94 (not ?v_87)) (?v_97 (= x_104 x_99)) (?v_84 (= x_202 x_193)) (?v_85 (= x_39 x_35)) (?v_88 (ite (<= x_97 x_96) x_97 x_96)) (?v_75 (= x_108 x_103)) (?v_77 (= x_102 x_107)) (?v_79 (= x_110 x_105)) (?v_73 (= x_101 x_106))) (let ((?v_80 (not ?v_73)) (?v_83 (= x_109 x_104)) (?v_70 (= x_211 x_202)) (?v_71 (= x_43 x_39)) (?v_74 (ite (<= x_102 x_101) x_102 x_101)) (?v_61 (= x_113 x_108)) (?v_63 (= x_107 x_112)) (?v_65 (= x_115 x_110)) (?v_59 (= x_106 x_111))) (let ((?v_66 (not ?v_59)) (?v_69 (= x_114 x_109)) (?v_56 (= x_220 x_211)) (?v_57 (= x_47 x_43)) (?v_60 (ite (<= x_107 x_106) x_107 x_106)) (?v_47 (= x_118 x_113)) (?v_49 (= x_112 x_117)) (?v_51 (= x_120 x_115)) (?v_45 (= x_111 x_116))) (let ((?v_52 (not ?v_45)) (?v_55 (= x_119 x_114)) (?v_42 (= x_229 x_220)) (?v_43 (= x_51 x_47)) (?v_46 (ite (<= x_112 x_111) x_112 x_111)) (?v_33 (= x_123 x_118)) (?v_35 (= x_117 x_122)) (?v_37 (= x_125 x_120)) (?v_31 (= x_116 x_121))) (let ((?v_38 (not ?v_31)) (?v_41 (= x_124 x_119)) (?v_28 (= x_238 x_229)) (?v_29 (= x_239 x_51)) (?v_32 (ite (<= x_117 x_116) x_117 x_116)) (?v_30 (= x_242 x_49)) (?v_40 (= x_51 x_239)) (?v_44 (= x_49 x_45)) (?v_54 (= x_47 x_51)) (?v_58 (= x_45 x_41)) (?v_68 (= x_43 x_47)) (?v_72 (= x_41 x_37)) (?v_82 (= x_39 x_43)) (?v_86 (= x_37 x_33)) (?v_96 (= x_35 x_39)) (?v_100 (= x_33 x_29)) (?v_110 (= x_31 x_35)) (?v_114 (= x_29 x_25)) (?v_124 (= x_27 x_31)) (?v_128 (= x_25 x_21)) (?v_138 (= x_23 x_27)) (?v_142 (= x_21 x_17)) (?v_152 (= x_19 x_23)) (?v_156 (= x_17 x_13)) (?v_166 (= x_15 x_19)) (?v_170 (= x_13 x_9)) (?v_180 (= x_11 x_15)) (?v_184 (= x_9 x_5)) (?v_194 (= x_7 x_11)) (?v_198 (= x_5 x_1)) (?v_208 (= x_3 x_7)) (?v_34 (<= x_120 ?v_2)) (?v_48 (<= x_115 ?v_4)) (?v_62 (<= x_110 ?v_6)) (?v_76 (<= x_105 ?v_8)) (?v_90 (<= x_100 ?v_10)) (?v_104 (<= x_95 ?v_12)) (?v_118 (<= x_90 ?v_14)) (?v_132 (<= x_85 ?v_16)) (?v_146 (<= x_80 ?v_18)) (?v_160 (<= x_75 ?v_20)) (?v_174 (<= x_70 ?v_22)) (?v_188 (<= x_65 ?v_24)) (?v_202 (<= x_59 ?v_26)) (?v_1 (+ ?v_0 x_56)) (?v_36 (+ ?v_2 x_60)) (?v_3 (+ ?v_2 x_56)) (?v_50 (+ ?v_4 x_60)) (?v_5 (+ ?v_4 x_56)) (?v_64 (+ ?v_6 x_60)) (?v_7 (+ ?v_6 x_56)) (?v_78 (+ ?v_8 x_60)) (?v_9 (+ ?v_8 x_56)) (?v_92 (+ ?v_10 x_60)) (?v_11 (+ ?v_10 x_56)) (?v_106 (+ ?v_12 x_60)) (?v_13 (+ ?v_12 x_56)) (?v_120 (+ ?v_14 x_60)) (?v_15 (+ ?v_14 x_56)) (?v_134 (+ ?v_16 x_60)) (?v_17 (+ ?v_16 x_56)) (?v_148 (+ ?v_18 x_60)) (?v_19 (+ ?v_18 x_56)) (?v_162 (+ ?v_20 x_60)) (?v_21 (+ ?v_20 x_56)) (?v_176 (+ ?v_22 x_60)) (?v_23 (+ ?v_22 x_56)) (?v_190 (+ ?v_24 x_60)) (?v_25 (+ ?v_24 x_56)) (?v_204 (+ ?v_26 x_60)) (?v_27 (+ ?v_26 x_56))) (let ((?v_39 (+ ?v_32 x_56)) (?v_53 (+ ?v_46 x_56)) (?v_67 (+ ?v_60 x_56)) (?v_81 (+ ?v_74 x_56)) (?v_95 (+ ?v_88 x_56)) (?v_109 (+ ?v_102 x_56)) (?v_123 (+ ?v_116 x_56)) (?v_137 (+ ?v_130 x_56)) (?v_151 (+ ?v_144 x_56)) (?v_165 (+ ?v_158 x_56)) (?v_179 (+ ?v_172 x_56)) (?v_193 (+ ?v_186 x_56)) (?v_207 (+ ?v_200 x_56))) (and (and (and (and (and (and (and (and (and (and (and (and (and (and (and (and (and (and (and (and (and (and (and (and (and (and (and (and (and (and (and (and (and (and (and (and (and (and (and (and (and (and (and (and (and (and (and (and (and (and (and (and (and (and (and (and (and (and (and (and (and (and (and (and (and (and (and (and (and (and (and (and (and (and (and (and (and (and (and (and (and (and (and (and (and (and (and (and (and (and (and (and (and (and (and (and (and (and (and (and (and (and (and (and (and (and (and (and (and (and (and (and (and (and (and (and (and (and (and (and (and (and (and (and (and (and (and (and (and (and (and (and (and (and (and (and (and (and (and (and (and (and (and (and (and (and (and (and (and (and (and (and (and (and (and (and (and (and (and (and (and (and (and (and (and (and (and (and (and (and (and (and (and (and (and (and (and (and (and (and (and (and (and (and (and (and (> x_54 0) (> x_55 0)) (>= x_56 0)) (< x_56 x_54)) (< x_56 x_55)) (>= x_60 0)) (< x_60 x_54)) (< x_60 x_55)) (or (= x_48 x_49) (= x_50 x_51))) (or (= x_44 x_45) (= x_46 x_47))) (or (= x_40 x_41) (= x_42 x_43))) (or (= x_36 x_37) (= x_38 x_39))) (or (= x_32 x_33) (= x_34 x_35))) (or (= x_28 x_29) (= x_30 x_31))) (or (= x_24 x_25) (= x_26 x_27))) (or (= x_20 x_21) (= x_22 x_23))) (or (= x_16 x_17) (= x_18 x_19))) (or (= x_12 x_13) (= x_14 x_15))) (or (= x_8 x_9) (= x_10 x_11))) (or (= x_4 x_5) (= x_6 x_7))) (or (= x_0 x_1) (= x_2 x_3))) (or (<= x_123 ?v_0) (<= (- (+ x_123 x_55) x_56) x_122))) (or (<= x_124 ?v_0) (<= (- (+ x_124 x_55) x_56) x_122))) (or (<= x_125 ?v_0) (<= (- (+ x_125 x_54) x_60) x_121))) (<= x_125 (+ ?v_0 x_60))) (<= x_124 ?v_1)) (<= x_123 ?v_1)) (<= ?v_0 x_121)) (<= ?v_0 x_122)) (or (<= x_118 ?v_2) (<= (- (+ x_118 x_55) x_56) x_117))) (or (<= x_119 ?v_2) (<= (- (+ x_119 x_55) x_56) x_117))) (or ?v_34 (<= (- (+ x_120 x_54) x_60) x_116))) (<= x_120 ?v_36)) (<= x_119 ?v_3)) (<= x_118 ?v_3)) (<= ?v_2 x_116)) (<= ?v_2 x_117)) (or (<= x_113 ?v_4) (<= (- (+ x_113 x_55) x_56) x_112))) (or (<= x_114 ?v_4) (<= (- (+ x_114 x_55) x_56) x_112))) (or ?v_48 (<= (- (+ x_115 x_54) x_60) x_111))) (<= x_115 ?v_50)) (<= x_114 ?v_5)) (<= x_113 ?v_5)) (<= ?v_4 x_111)) (<= ?v_4 x_112)) (or (<= x_108 ?v_6) (<= (- (+ x_108 x_55) x_56) x_107))) (or (<= x_109 ?v_6) (<= (- (+ x_109 x_55) x_56) x_107))) (or ?v_62 (<= (- (+ x_110 x_54) x_60) x_106))) (<= x_110 ?v_64)) (<= x_109 ?v_7)) (<= x_108 ?v_7)) (<= ?v_6 x_106)) (<= ?v_6 x_107)) (or (<= x_103 ?v_8) (<= (- (+ x_103 x_55) x_56) x_102))) (or (<= x_104 ?v_8) (<= (- (+ x_104 x_55) x_56) x_102))) (or ?v_76 (<= (- (+ x_105 x_54) x_60) x_101))) (<= x_105 ?v_78)) (<= x_104 ?v_9)) (<= x_103 ?v_9)) (<= ?v_8 x_101)) (<= ?v_8 x_102)) (or (<= x_98 ?v_10) (<= (- (+ x_98 x_55) x_56) x_97))) (or (<= x_99 ?v_10) (<= (- (+ x_99 x_55) x_56) x_97))) (or ?v_90 (<= (- (+ x_100 x_54) x_60) x_96))) (<= x_100 ?v_92)) (<= x_99 ?v_11)) (<= x_98 ?v_11)) (<= ?v_10 x_96)) (<= ?v_10 x_97)) (or (<= x_93 ?v_12) (<= (- (+ x_93 x_55) x_56) x_92))) (or (<= x_94 ?v_12) (<= (- (+ x_94 x_55) x_56) x_92))) (or ?v_104 (<= (- (+ x_95 x_54) x_60) x_91))) (<= x_95 ?v_106)) (<= x_94 ?v_13)) (<= x_93 ?v_13)) (<= ?v_12 x_91)) (<= ?v_12 x_92)) (or (<= x_88 ?v_14) (<= (- (+ x_88 x_55) x_56) x_87))) (or (<= x_89 ?v_14) (<= (- (+ x_89 x_55) x_56) x_87))) (or ?v_118 (<= (- (+ x_90 x_54) x_60) x_86))) (<= x_90 ?v_120)) (<= x_89 ?v_15)) (<= x_88 ?v_15)) (<= ?v_14 x_86)) (<= ?v_14 x_87)) (or (<= x_83 ?v_16) (<= (- (+ x_83 x_55) x_56) x_82))) (or (<= x_84 ?v_16) (<= (- (+ x_84 x_55) x_56) x_82))) (or ?v_132 (<= (- (+ x_85 x_54) x_60) x_81))) (<= x_85 ?v_134)) (<= x_84 ?v_17)) (<= x_83 ?v_17)) (<= ?v_16 x_81)) (<= ?v_16 x_82)) (or (<= x_78 ?v_18) (<= (- (+ x_78 x_55) x_56) x_77))) (or (<= x_79 ?v_18) (<= (- (+ x_79 x_55) x_56) x_77))) (or ?v_146 (<= (- (+ x_80 x_54) x_60) x_76))) (<= x_80 ?v_148)) (<= x_79 ?v_19)) (<= x_78 ?v_19)) (<= ?v_18 x_76)) (<= ?v_18 x_77)) (or (<= x_73 ?v_20) (<= (- (+ x_73 x_55) x_56) x_72))) (or (<= x_74 ?v_20) (<= (- (+ x_74 x_55) x_56) x_72))) (or ?v_160 (<= (- (+ x_75 x_54) x_60) x_71))) (<= x_75 ?v_162)) (<= x_74 ?v_21)) (<= x_73 ?v_21)) (<= ?v_20 x_71)) (<= ?v_20 x_72)) (or (<= x_68 ?v_22) (<= (- (+ x_68 x_55) x_56) x_67))) (or (<= x_69 ?v_22) (<= (- (+ x_69 x_55) x_56) x_67))) (or ?v_174 (<= (- (+ x_70 x_54) x_60) x_66))) (<= x_70 ?v_176)) (<= x_69 ?v_23)) (<= x_68 ?v_23)) (<= ?v_22 x_66)) (<= ?v_22 x_67)) (or (<= x_63 ?v_24) (<= (- (+ x_63 x_55) x_56) x_62))) (or (<= x_64 ?v_24) (<= (- (+ x_64 x_55) x_56) x_62))) (or ?v_188 (<= (- (+ x_65 x_54) x_60) x_61))) (<= x_65 ?v_190)) (<= x_64 ?v_25)) (<= x_63 ?v_25)) (<= ?v_24 x_61)) (<= ?v_24 x_62)) (or (<= x_57 ?v_26) (<= (- (+ x_57 x_55) x_56) x_53))) (or (<= x_58 ?v_26) (<= (- (+ x_58 x_55) x_56) x_53))) (or ?v_202 (<= (- (+ x_59 x_54) x_60) x_52))) (<= x_59 ?v_204)) (<= x_58 ?v_27)) (<= x_57 ?v_27)) (<= ?v_26 x_52)) (<= ?v_26 x_53)) (or (and (and (and (and (and (and (and (and (and (= x_240 0) (= x_241 x_234)) (= ?v_2 x_116)) (<= (+ ?v_2 x_54) x_121)) (or ?v_30 (= x_242 x_48))) (= x_243 x_231)) (= x_244 x_232)) (= x_122 x_117)) ?v_28) ?v_29) (and (and (and (and (and (and (and (and (and (= x_240 1) (= x_244 x_231)) (= ?v_2 x_117)) (<= (+ ?v_2 x_55) x_122)) (or (and (and (= x_245 0) ?v_28) ?v_29) (and (and (= x_245 1) (= x_229 x_232)) (= x_238 (not x_229))))) (= x_246 x_234)) (= x_241 x_48)) (= x_247 x_50)) (= x_121 x_116)) ?v_30))) (or (or (and (and (and (= x_248 0) ?v_38) (or (not (<= x_118 ?v_32)) (= x_246 x_229))) ?v_33) (and (and (and (= x_248 1) ?v_31) (xor x_229 x_238)) (= x_123 ?v_39))) (and (and (and (= x_248 2) ?v_31) (= x_229 x_238)) ?v_33))) (or (or (and (and (and (= x_249 0) (not ?v_35)) (or (not ?v_34) (= x_243 x_49))) ?v_37) (and (and (and (= x_249 1) ?v_35) (xor x_49 x_242)) (= x_125 ?v_36))) (and (and (and (= x_249 2) ?v_35) (= x_49 x_242)) ?v_37))) (or (or (and (and (and (= x_250 0) ?v_38) (or (not (<= x_119 ?v_32)) (= x_247 x_51))) ?v_41) (and (and (and (= x_250 1) ?v_31) (not ?v_40)) (= x_124 ?v_39))) (and (and (and (= x_250 2) ?v_31) ?v_40) ?v_41))) (or (and (and (and (and (and (and (and (and (and (= x_230 0) (= x_48 x_225)) (= ?v_4 x_111)) (<= (+ ?v_4 x_54) x_116)) (or ?v_44 (= x_49 x_44))) (= x_231 x_222)) (= x_232 x_223)) (= x_117 x_112)) ?v_42) ?v_43) (and (and (and (and (and (and (and (and (and (= x_230 1) (= x_232 x_222)) (= ?v_4 x_112)) (<= (+ ?v_4 x_55) x_117)) (or (and (and (= x_233 0) ?v_42) ?v_43) (and (and (= x_233 1) (= x_220 x_223)) (= x_229 (not x_220))))) (= x_234 x_225)) (= x_48 x_44)) (= x_50 x_46)) (= x_116 x_111)) ?v_44))) (or (or (and (and (and (= x_235 0) ?v_52) (or (not (<= x_113 ?v_46)) (= x_234 x_220))) ?v_47) (and (and (and (= x_235 1) ?v_45) (xor x_220 x_229)) (= x_118 ?v_53))) (and (and (and (= x_235 2) ?v_45) (= x_220 x_229)) ?v_47))) (or (or (and (and (and (= x_236 0) (not ?v_49)) (or (not ?v_48) (= x_231 x_45))) ?v_51) (and (and (and (= x_236 1) ?v_49) (xor x_45 x_49)) (= x_120 ?v_50))) (and (and (and (= x_236 2) ?v_49) (= x_45 x_49)) ?v_51))) (or (or (and (and (and (= x_237 0) ?v_52) (or (not (<= x_114 ?v_46)) (= x_50 x_47))) ?v_55) (and (and (and (= x_237 1) ?v_45) (not ?v_54)) (= x_119 ?v_53))) (and (and (and (= x_237 2) ?v_45) ?v_54) ?v_55))) (or (and (and (and (and (and (and (and (and (and (= x_221 0) (= x_44 x_216)) (= ?v_6 x_106)) (<= (+ ?v_6 x_54) x_111)) (or ?v_58 (= x_45 x_40))) (= x_222 x_213)) (= x_223 x_214)) (= x_112 x_107)) ?v_56) ?v_57) (and (and (and (and (and (and (and (and (and (= x_221 1) (= x_223 x_213)) (= ?v_6 x_107)) (<= (+ ?v_6 x_55) x_112)) (or (and (and (= x_224 0) ?v_56) ?v_57) (and (and (= x_224 1) (= x_211 x_214)) (= x_220 (not x_211))))) (= x_225 x_216)) (= x_44 x_40)) (= x_46 x_42)) (= x_111 x_106)) ?v_58))) (or (or (and (and (and (= x_226 0) ?v_66) (or (not (<= x_108 ?v_60)) (= x_225 x_211))) ?v_61) (and (and (and (= x_226 1) ?v_59) (xor x_211 x_220)) (= x_113 ?v_67))) (and (and (and (= x_226 2) ?v_59) (= x_211 x_220)) ?v_61))) (or (or (and (and (and (= x_227 0) (not ?v_63)) (or (not ?v_62) (= x_222 x_41))) ?v_65) (and (and (and (= x_227 1) ?v_63) (xor x_41 x_45)) (= x_115 ?v_64))) (and (and (and (= x_227 2) ?v_63) (= x_41 x_45)) ?v_65))) (or (or (and (and (and (= x_228 0) ?v_66) (or (not (<= x_109 ?v_60)) (= x_46 x_43))) ?v_69) (and (and (and (= x_228 1) ?v_59) (not ?v_68)) (= x_114 ?v_67))) (and (and (and (= x_228 2) ?v_59) ?v_68) ?v_69))) (or (and (and (and (and (and (and (and (and (and (= x_212 0) (= x_40 x_207)) (= ?v_8 x_101)) (<= (+ ?v_8 x_54) x_106)) (or ?v_72 (= x_41 x_36))) (= x_213 x_204)) (= x_214 x_205)) (= x_107 x_102)) ?v_70) ?v_71) (and (and (and (and (and (and (and (and (and (= x_212 1) (= x_214 x_204)) (= ?v_8 x_102)) (<= (+ ?v_8 x_55) x_107)) (or (and (and (= x_215 0) ?v_70) ?v_71) (and (and (= x_215 1) (= x_202 x_205)) (= x_211 (not x_202))))) (= x_216 x_207)) (= x_40 x_36)) (= x_42 x_38)) (= x_106 x_101)) ?v_72))) (or (or (and (and (and (= x_217 0) ?v_80) (or (not (<= x_103 ?v_74)) (= x_216 x_202))) ?v_75) (and (and (and (= x_217 1) ?v_73) (xor x_202 x_211)) (= x_108 ?v_81))) (and (and (and (= x_217 2) ?v_73) (= x_202 x_211)) ?v_75))) (or (or (and (and (and (= x_218 0) (not ?v_77)) (or (not ?v_76) (= x_213 x_37))) ?v_79) (and (and (and (= x_218 1) ?v_77) (xor x_37 x_41)) (= x_110 ?v_78))) (and (and (and (= x_218 2) ?v_77) (= x_37 x_41)) ?v_79))) (or (or (and (and (and (= x_219 0) ?v_80) (or (not (<= x_104 ?v_74)) (= x_42 x_39))) ?v_83) (and (and (and (= x_219 1) ?v_73) (not ?v_82)) (= x_109 ?v_81))) (and (and (and (= x_219 2) ?v_73) ?v_82) ?v_83))) (or (and (and (and (and (and (and (and (and (and (= x_203 0) (= x_36 x_198)) (= ?v_10 x_96)) (<= (+ ?v_10 x_54) x_101)) (or ?v_86 (= x_37 x_32))) (= x_204 x_195)) (= x_205 x_196)) (= x_102 x_97)) ?v_84) ?v_85) (and (and (and (and (and (and (and (and (and (= x_203 1) (= x_205 x_195)) (= ?v_10 x_97)) (<= (+ ?v_10 x_55) x_102)) (or (and (and (= x_206 0) ?v_84) ?v_85) (and (and (= x_206 1) (= x_193 x_196)) (= x_202 (not x_193))))) (= x_207 x_198)) (= x_36 x_32)) (= x_38 x_34)) (= x_101 x_96)) ?v_86))) (or (or (and (and (and (= x_208 0) ?v_94) (or (not (<= x_98 ?v_88)) (= x_207 x_193))) ?v_89) (and (and (and (= x_208 1) ?v_87) (xor x_193 x_202)) (= x_103 ?v_95))) (and (and (and (= x_208 2) ?v_87) (= x_193 x_202)) ?v_89))) (or (or (and (and (and (= x_209 0) (not ?v_91)) (or (not ?v_90) (= x_204 x_33))) ?v_93) (and (and (and (= x_209 1) ?v_91) (xor x_33 x_37)) (= x_105 ?v_92))) (and (and (and (= x_209 2) ?v_91) (= x_33 x_37)) ?v_93))) (or (or (and (and (and (= x_210 0) ?v_94) (or (not (<= x_99 ?v_88)) (= x_38 x_35))) ?v_97) (and (and (and (= x_210 1) ?v_87) (not ?v_96)) (= x_104 ?v_95))) (and (and (and (= x_210 2) ?v_87) ?v_96) ?v_97))) (or (and (and (and (and (and (and (and (and (and (= x_194 0) (= x_32 x_189)) (= ?v_12 x_91)) (<= (+ ?v_12 x_54) x_96)) (or ?v_100 (= x_33 x_28))) (= x_195 x_186)) (= x_196 x_187)) (= x_97 x_92)) ?v_98) ?v_99) (and (and (and (and (and (and (and (and (and (= x_194 1) (= x_196 x_186)) (= ?v_12 x_92)) (<= (+ ?v_12 x_55) x_97)) (or (and (and (= x_197 0) ?v_98) ?v_99) (and (and (= x_197 1) (= x_184 x_187)) (= x_193 (not x_184))))) (= x_198 x_189)) (= x_32 x_28)) (= x_34 x_30)) (= x_96 x_91)) ?v_100))) (or (or (and (and (and (= x_199 0) ?v_108) (or (not (<= x_93 ?v_102)) (= x_198 x_184))) ?v_103) (and (and (and (= x_199 1) ?v_101) (xor x_184 x_193)) (= x_98 ?v_109))) (and (and (and (= x_199 2) ?v_101) (= x_184 x_193)) ?v_103))) (or (or (and (and (and (= x_200 0) (not ?v_105)) (or (not ?v_104) (= x_195 x_29))) ?v_107) (and (and (and (= x_200 1) ?v_105) (xor x_29 x_33)) (= x_100 ?v_106))) (and (and (and (= x_200 2) ?v_105) (= x_29 x_33)) ?v_107))) (or (or (and (and (and (= x_201 0) ?v_108) (or (not (<= x_94 ?v_102)) (= x_34 x_31))) ?v_111) (and (and (and (= x_201 1) ?v_101) (not ?v_110)) (= x_99 ?v_109))) (and (and (and (= x_201 2) ?v_101) ?v_110) ?v_111))) (or (and (and (and (and (and (and (and (and (and (= x_185 0) (= x_28 x_180)) (= ?v_14 x_86)) (<= (+ ?v_14 x_54) x_91)) (or ?v_114 (= x_29 x_24))) (= x_186 x_177)) (= x_187 x_178)) (= x_92 x_87)) ?v_112) ?v_113) (and (and (and (and (and (and (and (and (and (= x_185 1) (= x_187 x_177)) (= ?v_14 x_87)) (<= (+ ?v_14 x_55) x_92)) (or (and (and (= x_188 0) ?v_112) ?v_113) (and (and (= x_188 1) (= x_175 x_178)) (= x_184 (not x_175))))) (= x_189 x_180)) (= x_28 x_24)) (= x_30 x_26)) (= x_91 x_86)) ?v_114))) (or (or (and (and (and (= x_190 0) ?v_122) (or (not (<= x_88 ?v_116)) (= x_189 x_175))) ?v_117) (and (and (and (= x_190 1) ?v_115) (xor x_175 x_184)) (= x_93 ?v_123))) (and (and (and (= x_190 2) ?v_115) (= x_175 x_184)) ?v_117))) (or (or (and (and (and (= x_191 0) (not ?v_119)) (or (not ?v_118) (= x_186 x_25))) ?v_121) (and (and (and (= x_191 1) ?v_119) (xor x_25 x_29)) (= x_95 ?v_120))) (and (and (and (= x_191 2) ?v_119) (= x_25 x_29)) ?v_121))) (or (or (and (and (and (= x_192 0) ?v_122) (or (not (<= x_89 ?v_116)) (= x_30 x_27))) ?v_125) (and (and (and (= x_192 1) ?v_115) (not ?v_124)) (= x_94 ?v_123))) (and (and (and (= x_192 2) ?v_115) ?v_124) ?v_125))) (or (and (and (and (and (and (and (and (and (and (= x_176 0) (= x_24 x_171)) (= ?v_16 x_81)) (<= (+ ?v_16 x_54) x_86)) (or ?v_128 (= x_25 x_20))) (= x_177 x_168)) (= x_178 x_169)) (= x_87 x_82)) ?v_126) ?v_127) (and (and (and (and (and (and (and (and (and (= x_176 1) (= x_178 x_168)) (= ?v_16 x_82)) (<= (+ ?v_16 x_55) x_87)) (or (and (and (= x_179 0) ?v_126) ?v_127) (and (and (= x_179 1) (= x_166 x_169)) (= x_175 (not x_166))))) (= x_180 x_171)) (= x_24 x_20)) (= x_26 x_22)) (= x_86 x_81)) ?v_128))) (or (or (and (and (and (= x_181 0) ?v_136) (or (not (<= x_83 ?v_130)) (= x_180 x_166))) ?v_131) (and (and (and (= x_181 1) ?v_129) (xor x_166 x_175)) (= x_88 ?v_137))) (and (and (and (= x_181 2) ?v_129) (= x_166 x_175)) ?v_131))) (or (or (and (and (and (= x_182 0) (not ?v_133)) (or (not ?v_132) (= x_177 x_21))) ?v_135) (and (and (and (= x_182 1) ?v_133) (xor x_21 x_25)) (= x_90 ?v_134))) (and (and (and (= x_182 2) ?v_133) (= x_21 x_25)) ?v_135))) (or (or (and (and (and (= x_183 0) ?v_136) (or (not (<= x_84 ?v_130)) (= x_26 x_23))) ?v_139) (and (and (and (= x_183 1) ?v_129) (not ?v_138)) (= x_89 ?v_137))) (and (and (and (= x_183 2) ?v_129) ?v_138) ?v_139))) (or (and (and (and (and (and (and (and (and (and (= x_167 0) (= x_20 x_162)) (= ?v_18 x_76)) (<= (+ ?v_18 x_54) x_81)) (or ?v_142 (= x_21 x_16))) (= x_168 x_159)) (= x_169 x_160)) (= x_82 x_77)) ?v_140) ?v_141) (and (and (and (and (and (and (and (and (and (= x_167 1) (= x_169 x_159)) (= ?v_18 x_77)) (<= (+ ?v_18 x_55) x_82)) (or (and (and (= x_170 0) ?v_140) ?v_141) (and (and (= x_170 1) (= x_157 x_160)) (= x_166 (not x_157))))) (= x_171 x_162)) (= x_20 x_16)) (= x_22 x_18)) (= x_81 x_76)) ?v_142))) (or (or (and (and (and (= x_172 0) ?v_150) (or (not (<= x_78 ?v_144)) (= x_171 x_157))) ?v_145) (and (and (and (= x_172 1) ?v_143) (xor x_157 x_166)) (= x_83 ?v_151))) (and (and (and (= x_172 2) ?v_143) (= x_157 x_166)) ?v_145))) (or (or (and (and (and (= x_173 0) (not ?v_147)) (or (not ?v_146) (= x_168 x_17))) ?v_149) (and (and (and (= x_173 1) ?v_147) (xor x_17 x_21)) (= x_85 ?v_148))) (and (and (and (= x_173 2) ?v_147) (= x_17 x_21)) ?v_149))) (or (or (and (and (and (= x_174 0) ?v_150) (or (not (<= x_79 ?v_144)) (= x_22 x_19))) ?v_153) (and (and (and (= x_174 1) ?v_143) (not ?v_152)) (= x_84 ?v_151))) (and (and (and (= x_174 2) ?v_143) ?v_152) ?v_153))) (or (and (and (and (and (and (and (and (and (and (= x_158 0) (= x_16 x_153)) (= ?v_20 x_71)) (<= (+ ?v_20 x_54) x_76)) (or ?v_156 (= x_17 x_12))) (= x_159 x_150)) (= x_160 x_151)) (= x_77 x_72)) ?v_154) ?v_155) (and (and (and (and (and (and (and (and (and (= x_158 1) (= x_160 x_150)) (= ?v_20 x_72)) (<= (+ ?v_20 x_55) x_77)) (or (and (and (= x_161 0) ?v_154) ?v_155) (and (and (= x_161 1) (= x_148 x_151)) (= x_157 (not x_148))))) (= x_162 x_153)) (= x_16 x_12)) (= x_18 x_14)) (= x_76 x_71)) ?v_156))) (or (or (and (and (and (= x_163 0) ?v_164) (or (not (<= x_73 ?v_158)) (= x_162 x_148))) ?v_159) (and (and (and (= x_163 1) ?v_157) (xor x_148 x_157)) (= x_78 ?v_165))) (and (and (and (= x_163 2) ?v_157) (= x_148 x_157)) ?v_159))) (or (or (and (and (and (= x_164 0) (not ?v_161)) (or (not ?v_160) (= x_159 x_13))) ?v_163) (and (and (and (= x_164 1) ?v_161) (xor x_13 x_17)) (= x_80 ?v_162))) (and (and (and (= x_164 2) ?v_161) (= x_13 x_17)) ?v_163))) (or (or (and (and (and (= x_165 0) ?v_164) (or (not (<= x_74 ?v_158)) (= x_18 x_15))) ?v_167) (and (and (and (= x_165 1) ?v_157) (not ?v_166)) (= x_79 ?v_165))) (and (and (and (= x_165 2) ?v_157) ?v_166) ?v_167))) (or (and (and (and (and (and (and (and (and (and (= x_149 0) (= x_12 x_144)) (= ?v_22 x_66)) (<= (+ ?v_22 x_54) x_71)) (or ?v_170 (= x_13 x_8))) (= x_150 x_141)) (= x_151 x_142)) (= x_72 x_67)) ?v_168) ?v_169) (and (and (and (and (and (and (and (and (and (= x_149 1) (= x_151 x_141)) (= ?v_22 x_67)) (<= (+ ?v_22 x_55) x_72)) (or (and (and (= x_152 0) ?v_168) ?v_169) (and (and (= x_152 1) (= x_139 x_142)) (= x_148 (not x_139))))) (= x_153 x_144)) (= x_12 x_8)) (= x_14 x_10)) (= x_71 x_66)) ?v_170))) (or (or (and (and (and (= x_154 0) ?v_178) (or (not (<= x_68 ?v_172)) (= x_153 x_139))) ?v_173) (and (and (and (= x_154 1) ?v_171) (xor x_139 x_148)) (= x_73 ?v_179))) (and (and (and (= x_154 2) ?v_171) (= x_139 x_148)) ?v_173))) (or (or (and (and (and (= x_155 0) (not ?v_175)) (or (not ?v_174) (= x_150 x_9))) ?v_177) (and (and (and (= x_155 1) ?v_175) (xor x_9 x_13)) (= x_75 ?v_176))) (and (and (and (= x_155 2) ?v_175) (= x_9 x_13)) ?v_177))) (or (or (and (and (and (= x_156 0) ?v_178) (or (not (<= x_69 ?v_172)) (= x_14 x_11))) ?v_181) (and (and (and (= x_156 1) ?v_171) (not ?v_180)) (= x_74 ?v_179))) (and (and (and (= x_156 2) ?v_171) ?v_180) ?v_181))) (or (and (and (and (and (and (and (and (and (and (= x_140 0) (= x_8 x_135)) (= ?v_24 x_61)) (<= (+ ?v_24 x_54) x_66)) (or ?v_184 (= x_9 x_4))) (= x_141 x_130)) (= x_142 x_132)) (= x_67 x_62)) ?v_182) ?v_183) (and (and (and (and (and (and (and (and (and (= x_140 1) (= x_142 x_130)) (= ?v_24 x_62)) (<= (+ ?v_24 x_55) x_67)) (or (and (and (= x_143 0) ?v_182) ?v_183) (and (and (= x_143 1) (= x_126 x_132)) (= x_139 (not x_126))))) (= x_144 x_135)) (= x_8 x_4)) (= x_10 x_6)) (= x_66 x_61)) ?v_184))) (or (or (and (and (and (= x_145 0) ?v_192) (or (not (<= x_63 ?v_186)) (= x_144 x_126))) ?v_187) (and (and (and (= x_145 1) ?v_185) (xor x_126 x_139)) (= x_68 ?v_193))) (and (and (and (= x_145 2) ?v_185) (= x_126 x_139)) ?v_187))) (or (or (and (and (and (= x_146 0) (not ?v_189)) (or (not ?v_188) (= x_141 x_5))) ?v_191) (and (and (and (= x_146 1) ?v_189) (xor x_5 x_9)) (= x_70 ?v_190))) (and (and (and (= x_146 2) ?v_189) (= x_5 x_9)) ?v_191))) (or (or (and (and (and (= x_147 0) ?v_192) (or (not (<= x_64 ?v_186)) (= x_10 x_7))) ?v_195) (and (and (and (= x_147 1) ?v_185) (not ?v_194)) (= x_69 ?v_193))) (and (and (and (= x_147 2) ?v_185) ?v_194) ?v_195))) (or (and (and (and (and (and (and (and (and (and (= x_128 0) (= x_4 x_129)) (= ?v_26 x_52)) (<= (+ ?v_26 x_54) x_61)) (or ?v_198 (= x_5 x_0))) (= x_130 x_131)) (= x_132 x_133)) (= x_62 x_53)) ?v_196) ?v_197) (and (and (and (and (and (and (and (and (and (= x_128 1) (= x_132 x_131)) (= ?v_26 x_53)) (<= (+ ?v_26 x_55) x_62)) (or (and (and (= x_134 0) ?v_196) ?v_197) (and (and (= x_134 1) (= x_127 x_133)) (= x_126 (not x_127))))) (= x_135 x_129)) (= x_4 x_0)) (= x_6 x_2)) (= x_61 x_52)) ?v_198))) (or (or (and (and (and (= x_136 0) ?v_206) (or (not (<= x_57 ?v_200)) (= x_135 x_127))) ?v_201) (and (and (and (= x_136 1) ?v_199) (xor x_127 x_126)) (= x_63 ?v_207))) (and (and (and (= x_136 2) ?v_199) (= x_127 x_126)) ?v_201))) (or (or (and (and (and (= x_137 0) (not ?v_203)) (or (not ?v_202) (= x_130 x_1))) ?v_205) (and (and (and (= x_137 1) ?v_203) (xor x_1 x_5)) (= x_65 ?v_204))) (and (and (and (= x_137 2) ?v_203) (= x_1 x_5)) ?v_205))) (or (or (and (and (and (= x_138 0) ?v_206) (or (not (<= x_58 ?v_200)) (= x_6 x_3))) ?v_209) (and (and (and (= x_138 1) ?v_199) (not ?v_208)) (= x_64 ?v_207))) (and (and (and (= x_138 2) ?v_199) ?v_208) ?v_209))) (xor x_241 x_242)) (not (= x_247 x_239)))))))))))))))))))
(check-sat)
(exit)
